language ESSENCE' 1.0

letting gain_Function1D be [10, 20, 40, 40, 50; int(1..5)]
letting weight_Function1D be [15, 25, 45, 50, 60; int(1..5)]
letting capacity be 100
letting fin1 be 5
letting fin2 be 15
letting fin3 be 60
letting fin4 be 5
letting fin5 be 10
letting fin6 be 50
letting items_EnumSize be 5
